data;

set A := 589 57 362 89 163 678 125 332 136 830 167 50 11 413 311 766 335 583 569 453 670 361 514 214 358 139 503 539 607 743 522 758 283 787 460 364 677 107 819 61 18 535 121 962 83 891 196 239 729 79 506 164 552 637 523 734 280 253 47 255;
param T := 15000;

end;
